243 5
10 10 10 10 10 

0 0 0 0 0 0 2 2 24 
0 0 0 0 0 0 5 3 5 20 21 22 
5 0 0 0 7 3 3 19 16 4 
10 0 0 0 5 6 4 18 17 15 6 
2 0 0 0 10 8 5 16 15 14 7 241 
4 0 0 0 10 10 2 14 7 
1 0 0 0 5 6 1 8 
2 0 0 0 10 10 1 9 
3 0 0 0 10 8 1 10 
9 0 0 0 5 8 1 11 
7 0 0 0 5 10 1 12 
6 0 0 0 7 7 1 13 
10 0 0 0 4 6 1 23 
5 0 0 0 8 6 1 23 
7 0 0 0 8 9 1 23 
7 0 0 0 7 8 1 23 
5 0 0 0 8 10 1 23 
2 0 0 0 7 7 1 23 
10 0 0 0 6 7 1 23 
10 0 0 0 9 9 1 23 
1 0 0 0 9 6 1 23 
10 0 0 0 10 6 1 23 
0 0 0 0 0 0 1 72 
0 0 0 0 0 0 1 25 
2 0 0 0 1 0 3 29 26 51 
3 0 0 0 8 0 3 31 28 27 
3 0 0 0 9 0 2 32 30 
7 0 0 0 5 0 2 32 30 
1 0 0 0 10 0 2 34 31 
1 0 0 0 9 0 2 34 33 
2 0 0 0 8 0 1 32 
8 0 0 0 8 0 1 33 
9 0 0 0 10 0 1 35 
8 0 0 0 7 0 1 35 
0 0 0 0 0 0 3 36 48 60 
0 0 0 0 0 0 4 37 38 39 41 
5 0 0 0 3 0 1 40 
4 0 0 0 10 0 1 40 
2 0 0 0 9 0 1 40 
4 0 0 0 6 0 1 42 
8 0 0 0 6 0 1 42 
5 0 0 0 9 0 1 43 
9 0 0 0 8 0 4 46 45 44 118 
8 0 0 0 7 0 1 47 
7 0 0 0 10 0 1 47 
10 0 0 0 7 0 1 47 
0 0 0 0 0 0 1 72 
0 0 0 0 0 0 5 49 51 55 57 58 
6 0 4 0 0 0 2 54 50 
9 0 7 0 0 0 1 52 
7 0 8 0 0 0 2 52 87 
10 0 6 0 0 0 1 53 
8 0 7 0 0 0 1 56 
2 0 10 0 0 0 1 56 
9 0 8 0 0 0 1 56 
8 0 10 0 0 0 1 59 
2 0 6 0 0 0 1 59 
4 0 9 0 0 0 1 59 
0 0 0 0 0 0 1 72 
0 0 0 0 0 0 3 61 62 63 
7 0 4 0 0 0 2 69 64 
9 0 7 0 0 0 3 69 66 65 
10 0 7 0 0 0 3 69 67 65 
9 0 10 0 0 0 2 66 65 
2 0 6 0 0 0 1 68 
7 0 10 0 0 0 1 67 
6 0 6 0 0 0 1 70 
5 0 8 0 0 0 1 70 
6 0 9 0 0 0 1 70 
3 0 8 0 0 0 1 71 
0 0 0 0 0 0 1 72 
0 0 0 0 0 0 4 73 85 97 109 
0 0 0 0 0 0 5 74 76 79 82 83 
5 0 0 0 0 10 1 75 
8 0 0 0 0 4 1 77 
7 0 0 0 0 3 1 77 
3 0 0 0 0 10 1 78 
4 0 0 0 0 10 1 80 
7 0 0 0 0 9 1 81 
1 0 0 0 0 10 1 84 
7 0 0 0 0 10 1 84 
1 0 0 0 0 4 1 84 
2 0 0 0 0 5 1 84 
0 0 0 0 0 0 1 121 
0 0 0 0 0 0 3 86 87 88 
7 0 2 0 0 0 2 93 89 
1 0 8 0 0 0 2 93 89 
1 0 8 0 0 0 1 89 
6 0 10 0 0 0 2 92 90 
1 0 10 0 0 0 1 91 
2 0 10 0 0 0 1 95 
10 0 6 0 0 0 1 94 
9 0 8 0 0 0 1 94 
8 0 8 0 0 0 1 96 
9 0 5 0 0 0 1 96 
0 0 0 0 0 0 1 121 
0 0 0 0 0 0 4 98 105 106 107 
3 4 0 0 0 0 3 104 103 99 
6 10 0 0 0 0 1 100 
1 10 0 0 0 0 1 101 
9 9 0 0 0 0 1 102 
10 6 0 0 0 0 1 108 
7 6 0 0 0 0 1 108 
1 10 0 0 0 0 1 108 
10 6 0 0 0 0 1 108 
9 10 0 0 0 0 1 108 
8 4 0 0 0 0 1 108 
0 0 0 0 0 0 1 121 
0 0 0 0 0 0 2 110 111 
10 0 2 0 0 0 3 116 113 112 
5 0 10 0 0 0 3 117 116 115 
7 0 10 0 0 0 2 117 114 
9 0 10 0 0 0 2 117 114 
2 0 3 0 0 0 1 115 
4 0 7 0 0 0 2 119 118 
3 0 6 0 0 0 2 119 118 
1 0 8 0 0 0 1 118 
10 0 9 0 0 0 1 120 
2 0 10 0 0 0 1 120 
0 0 0 0 0 0 1 121 
0 0 0 0 0 0 5 122 134 146 158 170 
0 0 0 0 0 0 3 123 128 129 
3 4 0 0 0 0 3 132 127 124 
4 10 0 0 0 0 1 125 
10 6 0 0 0 0 2 130 126 
10 8 0 0 0 0 1 131 
1 6 0 0 0 0 1 130 
5 4 0 0 0 0 1 132 
3 10 0 0 0 0 1 130 
3 7 0 0 0 0 1 133 
9 10 0 0 0 0 1 133 
2 10 0 0 0 0 1 133 
0 0 0 0 0 0 1 182 
0 0 0 0 0 0 4 135 142 143 144 
3 1 0 0 0 0 1 136 
5 9 0 0 0 0 2 141 137 
7 9 0 0 0 0 2 140 138 
8 10 0 0 0 0 1 139 
4 5 0 0 0 0 1 145 
1 7 0 0 0 0 1 145 
10 9 0 0 0 0 1 145 
10 6 0 0 0 0 1 145 
10 9 0 0 0 0 1 145 
5 10 0 0 0 0 1 145 
0 0 0 0 0 0 1 182 
0 0 0 0 0 0 3 147 148 150 
3 0 0 0 3 0 3 154 152 149 
1 0 0 0 10 0 2 154 153 
5 0 0 0 6 0 1 151 
3 0 0 0 5 0 1 151 
7 0 0 0 8 0 2 155 153 
5 0 0 0 9 0 2 156 155 
8 0 0 0 10 0 1 156 
10 0 0 0 9 0 1 155 
6 0 0 0 5 0 1 157 
1 0 0 0 10 0 1 157 
0 0 0 0 0 0 1 182 
0 0 0 0 0 0 2 159 163 
3 2 0 0 0 0 3 162 161 160 
9 7 0 0 0 0 2 168 164 
8 8 0 0 0 0 2 168 164 
7 9 0 0 0 0 2 168 165 
4 6 0 0 0 0 2 168 165 
7 7 0 0 0 0 1 165 
7 10 0 0 0 0 2 167 166 
1 10 0 0 0 0 1 169 
1 10 0 0 0 0 1 169 
10 6 0 0 0 0 1 169 
0 0 0 0 0 0 1 182 
0 0 0 0 0 0 5 171 175 176 179 180 
6 0 2 0 0 0 1 172 
3 0 6 0 0 0 2 178 173 
4 0 10 0 0 0 1 174 
2 0 10 0 0 0 1 177 
9 0 6 0 0 0 1 177 
3 0 5 0 0 0 1 177 
10 0 10 0 0 0 1 181 
10 0 8 0 0 0 1 181 
10 0 8 0 0 0 1 181 
8 0 10 0 0 0 1 181 
0 0 0 0 0 0 1 182 
0 0 0 0 0 0 5 183 195 207 219 231 
0 0 0 0 0 0 3 184 186 189 
4 0 0 2 0 0 2 193 185 
8 0 0 10 0 0 1 187 
2 0 0 6 0 0 3 192 191 190 
1 0 0 9 0 0 1 188 
4 0 0 9 0 0 2 191 190 
10 0 0 8 0 0 1 190 
10 0 0 8 0 0 1 194 
10 0 0 5 0 0 1 194 
5 0 0 8 0 0 1 194 
6 0 0 10 0 0 1 194 
0 0 0 0 0 0 1 243 
0 0 0 0 0 0 2 196 197 
6 0 0 4 0 0 2 200 198 
4 0 0 10 0 0 4 205 201 200 199 
3 0 0 6 0 0 3 205 201 199 
1 0 0 7 0 0 2 204 203 
1 0 0 10 0 0 2 204 203 
9 0 0 10 0 0 1 202 
8 0 0 7 0 0 1 203 
4 0 0 4 0 0 1 206 
2 0 0 9 0 0 1 206 
7 0 0 8 0 0 1 206 
0 0 0 0 0 0 1 243 
0 0 0 0 0 0 4 208 213 215 216 
6 0 0 0 3 0 3 212 210 209 
9 0 0 0 6 0 1 211 
9 0 0 0 7 0 1 211 
2 0 0 0 10 0 1 214 
9 0 0 0 10 0 1 214 
3 0 0 0 10 0 1 214 
5 0 0 0 3 0 1 217 
4 0 0 0 9 0 1 217 
5 0 0 0 9 0 1 217 
8 0 0 0 8 0 1 218 
0 0 0 0 0 0 1 243 
0 0 0 0 0 0 3 220 225 229 
7 0 0 0 4 0 2 224 221 
1 0 0 0 8 0 2 228 222 
1 0 0 0 9 0 2 227 223 
10 0 0 0 7 0 1 226 
6 0 0 0 10 0 1 227 
3 0 0 0 6 0 1 226 
1 0 0 0 6 0 1 230 
10 0 0 0 5 0 1 230 
6 0 0 0 10 0 1 230 
9 0 0 0 10 0 1 230 
0 0 0 0 0 0 1 243 
0 0 0 0 0 0 3 232 235 241 
6 0 0 5 0 0 1 233 
10 0 0 7 0 0 3 240 237 234 
5 0 0 4 0 0 2 239 236 
7 0 0 8 0 0 2 239 236 
3 0 0 8 0 0 1 238 
6 0 0 7 0 0 1 238 
7 0 0 8 0 0 1 242 
6 0 0 10 0 0 1 242 
10 0 0 10 0 0 1 242 
5 0 0 8 0 0 1 242 
0 0 0 0 0 0 1 243 
0 0 0 0 0 0 0 
